 &BANDS
   filband         =  'bands.dat'
   outdir          =  '../tmp'
   prefix          =  silicon
 /


