 &DOS
   fildos          =  'dos.dat'
   outdir          =  '../tmp'
   prefix          =  silicon
 /


